data/benchmarks/bayes/90-12-5-q.cnf
p cnf 672 565
c weights 0.932919 0.06708099999999995 1 1 1 1 1 1 1 1 1 1 1 1 1 1 1 1 1 1 1 1 1 1 1 1 1 1 1 1 1 1 1 1 1 1 1 1 1 1 1 1 1 1 1 1 1 1 1 1 1 1 1 1 1 1 1 1 1 1 1 1 1 1 1 1 1 1 1 1 1 1 1 1 1 1 1 1 1 1 1 1 1 1 1 1 1 1 1 1 1 1 1 1 1 1 1 1 1 1 1 1 1 1 1 1 1 1 1 1 1 1 1 1 1 1 1 1 1 1 1 1 1 1 1 1 1 1 1 1 1 1 1 1 1 1 1 1 1 1 1 1 1 1 1 1 1 1 1 1 1 1 1 1 1 1 1 1 1 1 1 1 1 1 1 1 1 1 1 1 1 1 1 1 1 1 1 1 1 1 1 1 1 1 1 1 1 1 1 1 1 1 1 1 1 1 1 1 1 1 1 1 1 1 1 1 1 1 1 1 1 1 1 1 1 1 1 1 1 1 1 1 1 1 1 1 1 1 1 1 1 1 1 1 1 1 1 1 1 1 1 1 1 1 1 1 1 1 1 1 1 1 1 1 1 1 1 1 1 1 1 1 1 1 1 1 1 1 1 1 1 1 1 1 1 1 1 1 1 1 1 1 1 1 1 1 1 1 0.5 0.5 0.5 0.5 0.5 0.5 0.5 0.5 0.0202522 0.9797478 0.757928 0.24207199999999995 0.5 0.5 0.5 0.5 0.5 0.5 0.5 0.5 0.5 0.5 0.5 0.5 0.5 0.5 0.5 0.5 0.5 0.5 0.5 0.5 0.5 0.5 0.5 0.5 0.5 0.5 0.5 0.5 0.5 0.5 0.5 0.5 0.5 0.5 0.5 0.5 0.5 0.5 0.5 0.5 0.5 0.5 0.5 0.5 0.5 0.5 0.5 0.5 0.5 0.5 0.5 0.5 0.5 0.5 0.5 0.5 0.5 0.5 0.5 0.5 0.5 0.5 0.5 0.5 0.5 0.5 0.5 0.5 0.5 0.5 0.5 0.5 0.5 0.5 0.5 0.5 0.5 0.5 0.5 0.5 0.5 0.5 0.5 0.5 0.5 0.5 0.5 0.5 0.5 0.5 0.5 0.5 0.5 0.5 0.5 0.5 0.5 0.5 0.5 0.5 0.5 0.5 0.5 0.5 0.5 0.5 0.5 0.5 0.5 0.5 0.5 0.5 0.5 0.5 0.5 0.5 0.5 0.5 0.5 0.5 0.5 0.5 0.5 0.5 0.507312 0.492688 0.270116 0.729884 0.5 0.5 0.5 0.5 0.5 0.5 0.5 0.5 0.5 0.5 0.5 0.5 0.5 0.5 0.5 0.5 0.081099 0.918901 0.718399 0.281601 0.649618 0.35038199999999997 0.906811 0.09318899999999997 0.5 0.5 0.5 0.5 0.5 0.5 0.5 0.5 0.5 0.5 0.5 0.5 0.5 0.5 0.5 0.5 0.5 0.5 0.5 0.5 0.5 0.5 0.5 0.5 0.5 0.5 0.5 0.5 0.5 0.5 0.5 0.5 0.5 0.5 0.5 0.5 0.5 0.5 0.5 0.5 0.5 0.5 0.5 0.5 0.5 0.5 0.5 0.5 0.5 0.5 0.5 0.5 0.5 0.5 0.5 0.5 0.5 0.5 0.5 0.5 0.5 0.5 0.5 0.5 0.5 0.5 0.5 0.5 0.5 0.5 0.5 0.5 0.5 0.5 0.5 0.5 0.5 0.5 0.5 0.5 0.5 0.5 0.5 0.5 0.5 0.5 0.5 0.5 0.5 0.5 0.5 0.5 0.5 0.5 0.5 0.5 0.5 0.5 0.5 0.5 0.5 0.5 0.5 0.5 0.5 0.5 0.5 0.5 0.5 0.5 0.5 0.5 0.5 0.5 0.5 0.5 0.5 0.5 0.5 0.5 0.5 0.5 0.5 0.5 0.5 0.5 0.5 0.5 0.5 0.5 0.5 0.5 0.5 0.5 0.5 0.5 0.5 0.5 0.5 0.5 0.5 0.5 0.5 0.5 0.5 0.5 0.5 0.5 0.5 0.5 0.5 0.5 0.5 0.5 0.5 0.5 0.5 0.5 0.5 0.5 0.5 0.5 0.5 0.5 0.5 0.5 0.5 0.5 0.5 0.5 0.5 0.5 0.5 0.5 0.5 0.5 0.5 0.5 0.5 0.5 0.5 0.5 0.5 0.5 0.5 0.5 0.5 0.5 0.5 0.5 0.5 0.5 0.5 0.5 0.5 0.5 0.5 0.5 0.5 0.5 0.883087 0.11691300000000004 0.53276 0.46724 0.452358 0.547642 0.38572 0.6142799999999999 0.5 0.5 0.5 0.5 0.5 0.5 0.5 0.5 0.5 0.5 0.5 0.5 0.5 0.5 0.5 0.5 0.304611 0.695389 0.205652 0.794348 0.3818 0.6182000000000001 0.699459 0.30054099999999995 0.5 0.5 0.5 0.5 0.5 0.5 0.5 0.5 0.5 0.5 0.5 0.5 0.5 0.5 0.5 0.5 0.5 0.5 0.5 0.5 0.5 0.5 0.5 0.5 0.5 0.5 0.5 0.5 0.453454 0.546546 0.469375 0.530625 0.406167 0.593833 0.598139 0.401861 0.5 0.5 0.5 0.5 0.5 0.5 0.5 0.5 0.5 0.5 0.5 0.5 0.5 0.5 0.5 0.5 0.5 0.5 0.5 0.5 0.5 0.5 0.5 0.5 0.5 0.5 0.5 0.5 0.5 0.5 0.5 0.5 0.5 0.5 0.5 0.5 0.5 0.5 0.5 0.5 0.5 0.5 0.5 0.5 0.5 0.5 0.5 0.5 0.5 0.5 0.5 0.5 0.5 0.5 0.5 0.5 0.5 0.5 0.5 0.5 0.5 0.5 0.5 0.5 0.5 0.5 0.5 0.5 0.5 0.5 0.5 0.5 0.5 0.5 0.5 0.5 0.5 0.5 0.5 0.5 0.5 0.5 0.5 0.5 0.5 0.5 0.5 0.5 0.5 0.5 0.5 0.5 0.5 0.5 0.5 0.5 0.5 0.5 0.5 0.5 0.5 0.5 0.5 0.5 0.5 0.5 0.5 0.5 0.5 0.5 0.5 0.5 0.5 0.5 0.5 0.5 0.5 0.5 0.5 0.5 0.5 0.5 0.5 0.5 0.5 0.5 0.5 0.5 0.5 0.5 0.5 0.5 0.5 0.5 0.5 0.5 0.5 0.5 0.5 0.5 0.5 0.5 0.5 0.5 0.5 0.5 0.5 0.5 0.5 0.5 0.5 0.5 0.5 0.5 0.5 0.5 0.5 0.5 0.5 0.5 0.5 0.5 0.5 0.5 0.5 0.5 0.5 0.5 0.5 0.5 0.5 0.5 0.5 0.5 0.5 0.5 0.5 0.5 0.5 0.5 0.5 0.5 0.5 0.5 0.5 0.5 0.5 0.5 0.5 0.5 0.5 0.5 0.5 0.5 0.5 0.5 0.5 0.5 0.5 0.5 0.5 0.5 0.5 0.5 0.5 0.5 0.5 0.5 0.5 0.5 0.5 0.5 0.5 0.5 0.5 0.5 0.5 0.5 0.5 0.5 0.5 0.5 0.5 0.5 0.5 0.5 0.5 0.5 0.5 0.5 0.5 0.5 0.5 0.5 0.5 0.5 0.5 0.5 0.5 0.5 0.5 0.5 0.5 0.5 0.5 0.5 0.5 0.5 0.5 0.5 0.5 0.5 0.5 0.5 0.5 0.5 0.5 0.5 0.5 0.5 0.5 0.5 0.5 0.5 0.5 0.5 0.5 0.5 0.5 0.5 0.5 0.5 0.5 0.5 0.5 0.5 0.5 0.5 0.5 0.5 0.5 0.5 0.5 0.5 0.5 0.5 0.5 0.5 0.5 0.5 0.5 0.5 0.5 0.5 0.5 0.5 0.5 0.5 0.5 0.5 0.5 0.5 0.5 0.5 0.5 0.5 0.5 0.5 0.5 0.5 0.5 0.5 0.5 0.5 0.5 0.5 0.5 0.5 0.5 0.5 0.5 0.5 0.5 0.5 0.5 0.5 0.5 0.5 0.5 0.5 0.5 0.5 0.5 0.5 0.5 0.5 0.5 0.5 0.5 0.5 0.189255 0.810745 0.275698 0.724302 0.7332 0.26680000000000004 0.0269207 0.9730793 0.5 0.5 0.5 0.5 0.5 0.5 0.5 0.5 0.5 0.5 0.5 0.5 0.5 0.5 0.5 0.5 0.5 0.5 0.5 0.5 0.5 0.5 0.5 0.5 0.5 0.5 0.5 0.5 0.5 0.5 0.5 0.5 0.5 0.5 0.5 0.5 0.0497212 0.9502788 0.84006 0.15993999999999997 0.978371 0.02162900000000001 0.0326362 0.9673638 0.5 0.5 0.5 0.5 0.5 0.5 0.5 0.5 0.5 0.5 0.5 0.5 0.5 0.5 0.5 0.5 0.5 0.5 0.5 0.5 0.5 0.5 0.5 0.5 0.5 0.5 0.5 0.5 0.5 0.5 0.5 0.5 0.5 0.5 0.5 0.5 0.5 0.5 0.5 0.5 0.5 0.5 0.5 0.5 0.5 0.5 0.5 0.5 0.5 0.5 0.5 0.5 0.5 0.5 0.5 0.5 0.5 0.5 0.5 0.5 0.5 0.5 0.5 0.5 0.5 0.5 0.5 0.5 0.5 0.5 0.5 0.5 0.5 0.5 0.5 0.5 0.5 0.5 0.5 0.5 0.5 0.5 0.5 0.5 0.5 0.5 0.5 0.5 0.5 0.5 0.5 0.5 0.5 0.5 0.5 0.5 0.5 0.5 0.5 0.5 0.5 0.5 0.5 0.5 0.5 0.5 0.5 0.5 0.5 0.5 0.5 0.5 0.5 0.5 0.5 0.5 0.356582 0.643418 0.422632 0.577368 0.102204 0.897796 0.108948 0.891052 0.5 0.5 0.5 0.5 0.5 0.5 0.5 0.5 0.5 0.5 0.5 0.5 0.5 0.5 0.5 0.5 0.5 0.5 0.5 0.5 0.5 0.5 0.5 0.5 0.5 0.5 0.5 0.5 0.5 0.5 0.5 0.5 0.5 0.5 0.5 0.5 0.5 0.5 0.5 0.5 0.5 0.5 0.5 0.5 0.5 0.5 0.5 0.5 0.5 0.5 0.5 0.5 0.5 0.5 0.5 0.5 0.5 0.5 0.5 0.5 0.237297 0.762703 0.936203 0.06379699999999999 0.118071 0.881929 0.688795 0.31120499999999995 0.5 0.5 0.5 0.5 0.5 0.5 0.5 0.5 0.5 0.5 0.5 0.5 0.5 0.5 0.5 0.5 0.5 0.5 0.5 0.5 0.5 0.5 0.5 0.5 0.5 0.5 0.5 0.5 0.5 0.5 0.5 0.5 0.5 0.5 0.5 0.5 0.5 0.5 0.5 0.5
-1 -2 0
1 2 0
-2 3 0
2 -3 0
-3 -149 4 0
-3 149 -4 0
3 -150 4 0
3 150 -4 0
-4 -5 0
4 5 0
-5 -6 0
5 6 0
-6 7 0
6 -7 0
-7 8 0
7 -8 0
-8 9 0
8 -9 0
-9 -10 0
9 10 0
-10 11 0
10 -11 0
-11 -12 0
11 12 0
-1 13 0
1 -13 0
-13 -2 14 0
-13 2 -14 0
13 -2 -14 0
13 2 -14 0
-14 -3 -15 0
-14 3 15 0
14 -3 15 0
14 3 15 0
-15 -4 -16 0
-15 4 -16 0
15 -4 16 0
15 4 16 0
-16 -5 -17 0
-16 5 17 0
16 -5 -17 0
16 5 -17 0
-17 -6 -18 0
-17 6 18 0
17 -6 -18 0
17 6 -18 0
-18 -7 -19 0
-18 7 -19 0
18 -7 -19 0
18 7 19 0
-19 -8 -20 0
-19 8 -20 0
19 -8 20 0
19 8 -20 0
-20 -9 -21 0
-20 9 -21 0
20 -9 21 0
20 9 21 0
-21 -10 -22 0
-21 10 -22 0
21 -10 -22 0
21 10 22 0
-22 -11 -23 0
-22 11 23 0
22 -11 -23 0
22 11 -23 0
-23 -12 24 0
-23 12 -24 0
23 -12 -24 0
23 12 24 0
-13 -213 25 0
-13 213 -25 0
13 -214 25 0
13 214 -25 0
-25 -14 26 0
-25 14 -26 0
25 -14 26 0
25 14 26 0
-26 -15 27 0
-26 15 -27 0
26 -15 27 0
26 15 27 0
-27 -16 -223 28 0
-27 -16 223 -28 0
-27 16 -224 28 0
-27 16 224 -28 0
27 -16 -225 28 0
27 -16 225 -28 0
27 16 -226 28 0
27 16 226 -28 0
-28 -17 -29 0
-28 17 -29 0
28 -17 -29 0
28 17 29 0
-29 -18 -30 0
-29 18 30 0
29 -18 30 0
29 18 30 0
-30 -19 31 0
-30 19 31 0
30 -19 -31 0
30 19 -31 0
-31 -20 32 0
-31 20 -32 0
31 -20 32 0
31 20 -32 0
-32 -21 33 0
-32 21 33 0
32 -21 33 0
32 21 -33 0
-33 -22 -34 0
-33 22 34 0
33 -22 -34 0
33 22 -34 0
-34 -23 35 0
-34 23 35 0
34 -23 -35 0
34 23 35 0
-35 -24 36 0
-35 24 36 0
35 -24 -36 0
35 24 36 0
-25 37 0
25 -37 0
-37 -26 -38 0
-37 26 -38 0
37 -26 -38 0
37 26 38 0
-38 -27 39 0
-38 27 39 0
38 -27 39 0
38 27 -39 0
-39 -28 40 0
-39 28 -40 0
39 -28 40 0
39 28 -40 0
-40 -29 41 0
-40 29 -41 0
40 -29 41 0
40 29 -41 0
-41 -30 -42 0
-41 30 -42 0
41 -30 -42 0
41 30 42 0
-42 -31 -43 0
-42 31 -43 0
42 -31 43 0
42 31 -43 0
-43 -32 44 0
-43 32 -44 0
43 -32 44 0
43 32 -44 0
-44 -33 -45 0
-44 33 -45 0
44 -33 45 0
44 33 45 0
-45 -34 -46 0
-45 34 46 0
45 -34 46 0
45 34 46 0
-46 -35 47 0
-46 35 47 0
46 -35 47 0
46 35 -47 0
-47 -36 48 0
-47 36 -48 0
47 -36 -48 0
47 36 48 0
-37 -49 0
37 49 0
-49 -38 -50 0
-49 38 50 0
49 -38 -50 0
49 38 -50 0
-50 -39 -51 0
-50 39 51 0
50 -39 51 0
50 39 -51 0
-51 -40 52 0
-51 40 52 0
51 -40 52 0
51 40 -52 0
-52 -41 -53 0
-52 41 53 0
52 -41 53 0
52 41 -53 0
-53 -42 -54 0
-53 42 54 0
53 -42 -54 0
53 42 -54 0
-54 -43 -327 55 0
-54 -43 327 -55 0
-54 43 -328 55 0
-54 43 328 -55 0
54 -43 -329 55 0
54 -43 329 -55 0
54 43 -330 55 0
54 43 330 -55 0
-55 -44 -56 0
-55 44 -56 0
55 -44 56 0
55 44 -56 0
-56 -45 57 0
-56 45 -57 0
56 -45 -57 0
56 45 -57 0
-57 -46 -339 58 0
-57 -46 339 -58 0
-57 46 -340 58 0
-57 46 340 -58 0
57 -46 -341 58 0
57 -46 341 -58 0
57 46 -342 58 0
57 46 342 -58 0
-58 -47 -59 0
-58 47 59 0
58 -47 59 0
58 47 -59 0
-59 -48 60 0
-59 48 60 0
59 -48 -60 0
59 48 60 0
-49 61 0
49 -61 0
-61 -50 -62 0
-61 50 62 0
61 -50 62 0
61 50 -62 0
-62 -51 -357 63 0
-62 -51 357 -63 0
-62 51 -358 63 0
-62 51 358 -63 0
62 -51 -359 63 0
62 -51 359 -63 0
62 51 -360 63 0
62 51 360 -63 0
-63 -52 64 0
-63 52 64 0
63 -52 -64 0
63 52 64 0
-64 -53 65 0
-64 53 -65 0
64 -53 65 0
64 53 65 0
-65 -54 -66 0
-65 54 66 0
65 -54 -66 0
65 54 66 0
-66 -55 67 0
-66 55 67 0
66 -55 -67 0
66 55 -67 0
-67 -56 -68 0
-67 56 68 0
67 -56 -68 0
67 56 -68 0
-68 -57 69 0
-68 57 -69 0
68 -57 69 0
68 57 -69 0
-69 -58 70 0
-69 58 -70 0
69 -58 -70 0
69 58 -70 0
-70 -59 -71 0
-70 59 71 0
70 -59 -71 0
70 59 71 0
-71 -60 -72 0
-71 60 72 0
71 -60 72 0
71 60 72 0
-61 -73 0
61 73 0
-73 -62 74 0
-73 62 -74 0
73 -62 -74 0
73 62 -74 0
-74 -63 75 0
-74 63 -75 0
74 -63 75 0
74 63 75 0
-75 -64 -76 0
-75 64 -76 0
75 -64 76 0
75 64 -76 0
-76 -65 77 0
-76 65 77 0
76 -65 -77 0
76 65 -77 0
-77 -66 78 0
-77 66 -78 0
77 -66 -78 0
77 66 -78 0
-78 -67 79 0
-78 67 79 0
78 -67 -79 0
78 67 79 0
-79 -68 -80 0
-79 68 80 0
79 -68 -80 0
79 68 -80 0
-80 -69 81 0
-80 69 81 0
80 -69 81 0
80 69 -81 0
-81 -70 -82 0
-81 70 -82 0
81 -70 -82 0
81 70 82 0
-82 -71 -83 0
-82 71 83 0
82 -71 -83 0
82 71 -83 0
-83 -72 84 0
-83 72 84 0
83 -72 -84 0
83 72 84 0
-73 85 0
73 -85 0
-85 -74 86 0
-85 74 86 0
85 -74 86 0
85 74 -86 0
-86 -75 -87 0
-86 75 -87 0
86 -75 87 0
86 75 87 0
-87 -76 88 0
-87 76 -88 0
87 -76 -88 0
87 76 -88 0
-88 -77 -89 0
-88 77 -89 0
88 -77 89 0
88 77 -89 0
-89 -78 90 0
-89 78 -90 0
89 -78 -90 0
89 78 -90 0
-90 -79 -91 0
-90 79 91 0
90 -79 91 0
90 79 91 0
-91 -80 -92 0
-91 80 -92 0
91 -80 92 0
91 80 92 0
-92 -81 93 0
-92 81 93 0
92 -81 -93 0
92 81 93 0
-93 -82 -94 0
-93 82 94 0
93 -82 94 0
93 82 -94 0
-94 -83 95 0
-94 83 95 0
94 -83 -95 0
94 83 95 0
-95 -84 96 0
-95 84 -96 0
95 -84 -96 0
95 84 96 0
-85 -97 0
85 97 0
-97 -86 -98 0
-97 86 98 0
97 -86 98 0
97 86 -98 0
-98 -87 -99 0
-98 87 99 0
98 -87 99 0
98 87 99 0
-99 -88 -100 0
-99 88 -100 0
99 -88 100 0
99 88 100 0
-100 -89 101 0
-100 89 -101 0
100 -89 101 0
100 89 101 0
-101 -90 -102 0
-101 90 102 0
101 -90 102 0
101 90 102 0
-102 -91 103 0
-102 91 103 0
102 -91 103 0
102 91 -103 0
-103 -92 104 0
-103 92 104 0
103 -92 104 0
103 92 -104 0
-104 -93 105 0
-104 93 -105 0
104 -93 -105 0
104 93 -105 0
-105 -94 -106 0
-105 94 -106 0
105 -94 -106 0
105 94 106 0
-106 -95 -107 0
-106 95 -107 0
106 -95 107 0
106 95 -107 0
-107 -96 -531 108 0
-107 -96 531 -108 0
-107 96 -532 108 0
-107 96 532 -108 0
107 -96 -533 108 0
107 -96 533 -108 0
107 96 -534 108 0
107 96 534 -108 0
-97 -109 0
97 109 0
-109 -98 -110 0
-109 98 -110 0
109 -98 -110 0
109 98 110 0
-110 -99 111 0
-110 99 -111 0
110 -99 -111 0
110 99 111 0
-111 -100 -112 0
-111 100 -112 0
111 -100 112 0
111 100 112 0
-112 -101 113 0
-112 101 -113 0
112 -101 113 0
112 101 113 0
-113 -102 -553 114 0
-113 -102 553 -114 0
-113 102 -554 114 0
-113 102 554 -114 0
113 -102 -555 114 0
113 -102 555 -114 0
113 102 -556 114 0
113 102 556 -114 0
-114 -103 115 0
-114 103 115 0
114 -103 -115 0
114 103 -115 0
-115 -104 -116 0
-115 104 116 0
115 -104 116 0
115 104 -116 0
-116 -105 -117 0
-116 105 -117 0
116 -105 117 0
116 105 -117 0
-117 -106 118 0
-117 106 118 0
117 -106 118 0
117 106 -118 0
-118 -107 119 0
-118 107 119 0
118 -107 -119 0
118 107 -119 0
-119 -108 -120 0
-119 108 120 0
119 -108 120 0
119 108 -120 0
-109 -121 0
109 121 0
-121 -110 -122 0
-121 110 122 0
121 -110 -122 0
121 110 -122 0
-122 -111 123 0
-122 111 123 0
122 -111 -123 0
122 111 123 0
-123 -112 -124 0
-123 112 -124 0
123 -112 124 0
123 112 -124 0
-124 -113 -125 0
-124 113 -125 0
124 -113 125 0
124 113 -125 0
-125 -114 126 0
-125 114 -126 0
125 -114 126 0
125 114 126 0
-126 -115 -127 0
-126 115 127 0
126 -115 127 0
126 115 -127 0
-127 -116 -128 0
-127 116 128 0
127 -116 128 0
127 116 -128 0
-128 -117 -129 0
-128 117 129 0
128 -117 -129 0
128 117 129 0
-129 -118 -615 130 0
-129 -118 615 -130 0
-129 118 -616 130 0
-129 118 616 -130 0
129 -118 -617 130 0
129 -118 617 -130 0
129 118 -618 130 0
129 118 618 -130 0
-130 -119 131 0
-130 119 131 0
130 -119 -131 0
130 119 131 0
-131 -120 -132 0
-131 120 -132 0
131 -120 132 0
131 120 132 0
-121 133 0
121 -133 0
-133 -122 134 0
-133 122 134 0
133 -122 -134 0
133 122 -134 0
-134 -123 135 0
-134 123 135 0
134 -123 135 0
134 123 -135 0
-135 -124 -136 0
-135 124 -136 0
135 -124 136 0
135 124 -136 0
-136 -125 137 0
-136 125 -137 0
136 -125 -137 0
136 125 137 0
-137 -126 138 0
-137 126 138 0
137 -126 -138 0
137 126 -138 0
-138 -127 -649 139 0
-138 -127 649 -139 0
-138 127 -650 139 0
-138 127 650 -139 0
138 -127 -651 139 0
138 -127 651 -139 0
138 127 -652 139 0
138 127 652 -139 0
-139 -128 140 0
-139 128 -140 0
139 -128 -140 0
139 128 140 0
-140 -129 141 0
-140 129 -141 0
140 -129 -141 0
140 129 -141 0
-141 -130 -142 0
-141 130 -142 0
141 -130 -142 0
141 130 142 0
-142 -131 -143 0
-142 131 143 0
142 -131 -143 0
142 131 -143 0
-143 -132 144 0
-143 132 -144 0
143 -132 -144 0
143 132 144 0
144 0
