data/benchmarks/bayes/90-12-5-q.gr
p tw 672 489
43 330
55 66
67 68
107 531
99 100
88 100
70 82
8 9
40 41
29 41
3 150
100 101
118 616
130 618
11 23
121 133
113 556
41 42
73 74
62 74
133 134
44 56
102 555
16 223
14 15
3 15
74 75
106 107
95 107
62 357
122 133
28 224
15 16
47 48
36 48
107 108
96 108
18 30
128 140
21 32
80 81
69 81
140 141
113 124
129 141
10 22
81 82
54 65
13 213
102 114
22 23
43 55
54 330
114 115
87 98
103 115
55 56
28 39
43 329
27 223
76 88
88 99
29 40
55 330
77 89
3 149
118 615
130 617
2 13
58 341
62 73
110 122
3 14
51 63
35 46
95 106
36 47
128 139
21 22
69 80
113 114
139 651
129 616
10 21
54 55
102 113
43 54
54 329
87 88
28 29
17 29
43 328
76 87
88 89
109 121
29 30
57 339
46 339
61 62
50 62
121 122
2 3
58 340
62 63
94 95
83 95
110 121
3 4
35 36
24 36
108 533
95 96
84 96
127 128
116 128
9 20
68 69
57 69
27 226
128 129
117 129
127 649
69 70
42 53
58 70
101 102
90 102
10 11
139 650
129 615
31 43
102 103
75 86
63 359
91 103
123 135
43 44
16 27
32 44
64 76
135 136
108 119
124 136
5 17
17 28
76 77
65 77
97 109
6 18
50 61
98 110
82 93
39 51
23 34
83 94
131 143
115 126
24 35
72 84
56 67
108 532
116 127
9 10
57 68
89 100
30 41
42 43
90 101
134 135
31 42
75 76
63 358
123 134
16 17
64 75
96 531
5 16
49 50
38 50
109 110
130 142
50 51
127 652
82 83
71 83
138 649
25 214
142 143
23 24
12 24
83 84
115 116
104 116
56 57
45 57
114 556
116 117
105 117
57 58
46 58
89 90
78 90
4 150
30 31
19 31
90 91
63 74
79 91
111 123
31 32
4 15
20 32
52 64
141 142
123 124
112 124
63 357
64 65
53 65
85 97
5 6
26 38
51 360
38 49
97 98
70 81
86 98
118 130
130 141
27 39
11 22
113 555
71 82
119 131
25 213
12 23
60 72
44 55
102 554
104 115
1 13
122 123
45 56
114 555
93 105
28 223
96 107
107 534
96 534
18 29
78 89
126 138
4 149
19 30
129 140
63 64
111 122
138 652
4 5
25 37
52 63
16 226
103 114
37 38
62 360
26 37
51 359
70 71
59 71
118 129
130 131
55 329
77 88
11 12
130 616
113 554
92 104
44 45
33 45
102 553
125 137
51 62
66 78
137 138
18 19
7 19
99 111
129 130
40 52
118 618
111 112
100 112
132 144
73 85
16 225
54 328
103 104
14 26
85 86
62 359
106 118
43 327
136 137
47 59
59 70
118 119
107 119
77 78
55 328
130 615
80 92
113 553
92 103
58 339
110 111
33 44
81 93
51 52
125 136
84 95
143 144
66 77
114 126
27 225
117 128
55 67
99 110
58 69
57 342
46 342
40 51
118 617
139 649
132 143
91 102
25 26
32 43
54 327
14 25
124 135
17 18
106 117
65 76
47 58
6 17
98 109
21 33
80 91
113 125
39 50
129 618
131 142
54 66
13 25
72 83
108 531
87 99
117 118
28 40
27 224
120 132
58 59
57 341
46 341
61 73
91 92
2 14
58 342
94 106
32 33
124 125
35 47
127 139
65 66
68 80
6 7
139 140
127 651
98 99
101 113
39 40
139 652
129 617
131 132
105 116
46 57
120 131
79 90
57 340
46 340
20 31
112 123
94 105
53 64
108 534
38 39
127 138
86 97
9 21
68 79
27 38
71 72
127 650
119 130
42 54
101 112
60 71
104 105
75 87
13 14
63 360
45 46
34 46
114 554
93 104
105 106
16 28
107 533
96 533
46 47
108 120
78 79
67 79
126 137
138 139
49 61
19 20
8 20
79 80
138 651
82 94
20 21
52 53
41 53
112 113
23 35
115 127
53 54
74 86
28 226
56 68
26 27
15 27
86 87
51 358
89 101
27 28
48 60
119 120
30 42
1 2
22 34
34 45
93 94
114 553
7 18
107 532
96 532
67 78
126 127
8 19
100 111
138 650
41 52
102 556
16 224
74 85
62 358
122 134
28 225
15 26
59 60
51 357
107 118
55 327
48 59
92 93
63 75
33 34
13 214
81 92
4 16
125 126
22 33
34 35
66 67
114 125
37 49
7 8
